500
1000
266
266
265
265
265
263
263
262
262
262
262
262
261
260
260
259
258
258
257
257
257
257
255
254
254
253
252
252
252
252
250
249
249
248
248
247
246
246
245
245
244
244
243
243
243
242
242
241
241
240
240
240
240
240
240
239
239
239
239
239
238
238
237
237
236
236
235
234
234
233
232
231
230
229
228
228
227
227
227
226
226
226
225
225
225
225
225
224
223
223
223
223
223
223
222
222
222
221
221
220
218
217
217
215
215
215
215
214
214
214
213
213
213
212
212
212
211
210
210
210
208
208
207
207
207
206
205
205
204
204
203
203
203
203
201
201
201
200
200
200
200
200
199
198
198
197
197
196
195
195
195
194
194
194
194
194
193
193
193
193
191
191
190
190
190
190
190
189
189
189
188
187
187
186
185
185
185
185
184
183
182
181
181
180
180
180
179
179
178
177
177
177
176
176
175
174
174
174
174
173
172
172
171
170
170
170
170
169
168
168
167
166
165
163
163
162
162
161
161
161
161
160
159
159
158
158
158
158
157
157
156
155
154
154
153
153
153
153
153
150
150
149
149
148
148
146
146
145
145
144
143
143
142
142
141
141
141
140
140
139
139
138
138
137
137
137
137
136
136
136
136
136
135
135
135
134
134
133
132
131
131
131
131
130
130
128
128
127
127
127
127
127
125
124
124
124
124
122
122
122
121
121
121
121
121
121
121
121
120
118
118
118
117
117
117
116
116
115
114
113
113
111
111
108
108
107
106
106
104
104
103
103
102
102
102
101
101
100
100
100
100
99
98
98
97
94
94
93
93
92
92
92
90
90
88
88
88
87
86
86
85
85
84
84
84
83
82
81
81
80
79
79
79
79
78
78
78
76
76
76
75
73
72
72
71
71
71
70
69
69
68
67
67
67
66
65
64
64
63
63
62
62
62
58
58
57
57
57
57
56
55
55
54
54
53
53
52
52
50
50
50
50
50
49
48
48
48
47
47
47
47
46
46
46
45
45
45
45
44
43
42
41
41
40
40
39
38
38
38
37
37
37
36
36
36
35
35
34
34
34
33
32
31
31
31
31
31
30
30
30
30
29
29
29
29
29
29
28
27
27
27
27
26
26
25
24
23
23
22
20
20
19
18
18
17
17
17
16
16
16
